c This file is generated by _findSolu
c Generated on Mon Nov  9 15:41:38 2015
p cnf 123 313
-1 -3 -15 0
1 15 0
3 15 0
-3 -4 -12 0
3 12 0
4 12 0
-2 -12 -14 0
2 14 0
12 14 0
-5 -12 -13 0
5 13 0
12 13 0
-15 -18 -10 0
15 10 0
18 10 0
-31 -31 -11 0
31 11 0
31 11 0
6 16 0
-6 -16 0
7 17 0
-7 -17 0
-1 -16 19 0
1 -19 0
16 -19 0
-14 -6 20 0
14 -20 0
6 -20 0
-4 -16 21 0
4 -21 0
16 -21 0
-14 -6 22 0
14 -22 0
6 -22 0
-19 -17 23 0
19 -23 0
17 -23 0
-20 -7 24 0
20 -24 0
7 -24 0
-21 -17 25 0
21 -25 0
17 -25 0
-22 -7 26 0
22 -26 0
7 -26 0
23 24 -27 0
-23 27 0
-24 27 0
25 27 -28 0
-25 28 0
-27 28 0
28 26 -18 0
-28 18 0
-26 18 0
8 29 0
-8 -29 0
9 30 0
-9 -30 0
-1 -29 32 0
1 -32 0
29 -32 0
-13 -8 33 0
13 -33 0
8 -33 0
-4 -29 34 0
4 -34 0
29 -34 0
-13 -8 35 0
13 -35 0
8 -35 0
-32 -30 36 0
32 -36 0
30 -36 0
-33 -9 37 0
33 -37 0
9 -37 0
-34 -30 38 0
34 -38 0
30 -38 0
-35 -9 39 0
35 -39 0
9 -39 0
36 37 -40 0
-36 40 0
-37 40 0
38 40 -41 0
-38 41 0
-40 41 0
41 39 -31 0
-41 31 0
-39 31 0
-1 0
2 0
-3 0
-4 0
-5 0
10 0
-11 0
c New duplicated circuit:
-42 -44 -56 0
42 56 0
44 56 0
-44 -45 -53 0
44 53 0
45 53 0
-43 -53 -55 0
43 55 0
53 55 0
-46 -53 -54 0
46 54 0
53 54 0
-56 -59 -51 0
56 51 0
59 51 0
-72 -72 -52 0
72 52 0
72 52 0
47 57 0
-47 -57 0
48 58 0
-48 -58 0
-42 -57 60 0
42 -60 0
57 -60 0
-55 -47 61 0
55 -61 0
47 -61 0
-45 -57 62 0
45 -62 0
57 -62 0
-55 -47 63 0
55 -63 0
47 -63 0
-60 -58 64 0
60 -64 0
58 -64 0
-61 -48 65 0
61 -65 0
48 -65 0
-62 -58 66 0
62 -66 0
58 -66 0
-63 -48 67 0
63 -67 0
48 -67 0
64 65 -68 0
-64 68 0
-65 68 0
66 68 -69 0
-66 69 0
-68 69 0
69 67 -59 0
-69 59 0
-67 59 0
49 70 0
-49 -70 0
50 71 0
-50 -71 0
-42 -70 73 0
42 -73 0
70 -73 0
-54 -49 74 0
54 -74 0
49 -74 0
-45 -70 75 0
45 -75 0
70 -75 0
-54 -49 76 0
54 -76 0
49 -76 0
-73 -71 77 0
73 -77 0
71 -77 0
-74 -50 78 0
74 -78 0
50 -78 0
-75 -71 79 0
75 -79 0
71 -79 0
-76 -50 80 0
76 -80 0
50 -80 0
77 78 -81 0
-77 81 0
-78 81 0
79 81 -82 0
-79 82 0
-81 82 0
82 80 -72 0
-82 72 0
-80 72 0
6 -47 0
-6 47 0
7 -48 0
-7 48 0
8 -49 0
-8 49 0
9 -50 0
-9 50 0
-42 0
-43 0
-44 0
45 0
-46 0
-51 0
-52 0
c New duplicated circuit:
-83 -85 -97 0
83 97 0
85 97 0
-85 -86 -94 0
85 94 0
86 94 0
-84 -94 -96 0
84 96 0
94 96 0
-87 -94 -95 0
87 95 0
94 95 0
-97 -100 -92 0
97 92 0
100 92 0
-113 -113 -93 0
113 93 0
113 93 0
88 98 0
-88 -98 0
89 99 0
-89 -99 0
-83 -98 101 0
83 -101 0
98 -101 0
-96 -88 102 0
96 -102 0
88 -102 0
-86 -98 103 0
86 -103 0
98 -103 0
-96 -88 104 0
96 -104 0
88 -104 0
-101 -99 105 0
101 -105 0
99 -105 0
-102 -89 106 0
102 -106 0
89 -106 0
-103 -99 107 0
103 -107 0
99 -107 0
-104 -89 108 0
104 -108 0
89 -108 0
105 106 -109 0
-105 109 0
-106 109 0
107 109 -110 0
-107 110 0
-109 110 0
110 108 -100 0
-110 100 0
-108 100 0
90 111 0
-90 -111 0
91 112 0
-91 -112 0
-83 -111 114 0
83 -114 0
111 -114 0
-95 -90 115 0
95 -115 0
90 -115 0
-86 -111 116 0
86 -116 0
111 -116 0
-95 -90 117 0
95 -117 0
90 -117 0
-114 -112 118 0
114 -118 0
112 -118 0
-115 -91 119 0
115 -119 0
91 -119 0
-116 -112 120 0
116 -120 0
112 -120 0
-117 -91 121 0
117 -121 0
91 -121 0
118 119 -122 0
-118 122 0
-119 122 0
120 122 -123 0
-120 123 0
-122 123 0
123 121 -113 0
-123 113 0
-121 113 0
6 -88 0
-6 88 0
7 -89 0
-7 89 0
8 -90 0
-8 90 0
9 -91 0
-9 91 0
-83 0
84 0
-85 0
86 0
-87 0
92 0
-93 0
